50
0 721263 621263
1 497912 397912
2 589568 489568
3 541740 441740
4 137882 37882
5 841042 741042
6 963687 863687
7 689522 589522
8 196748 96748
9 973627 873627
10 472333 372333
11 933415 833415
12 426277 326277
13 344715 244715
14 692663 592663
15 459193 359193
16 707109 607109
17 960088 860088
18 420126 320126
19 669904 569904
20 483067 383067
21 610809 510809
22 173703 73703
23 491937 391937
24 926060 826060
25 167269 67269
26 264256 164256
27 545760 445760
28 1065756 965756
29 1047353 947353
30 825912 725912
31 106834 6834
32 991101 891101
33 279128 179128
34 661756 561756
35 149056 49056
36 527121 427121
37 481196 381196
38 672010 572010
39 907207 807207
40 291677 191677
41 447819 347819
42 1046803 946803
43 286925 186925
44 386668 286668
45 833206 733206
46 1099154 999154
47 947726 847726
48 138876 38876
49 287355 187355
8932134
